id: 1255
name: ofi
group: miplib2010
method: 1

Gurobi 7.0.2 (linux64, Matlab) logging started Fri Apr 20 04:47:46 2018


Gurobi 7.0.2 (linux64) logging started Fri Apr 20 04:47:46 2018

Optimize a model with 422587 rows, 420434 columns and 1776930 nonzeros
Coefficient statistics:
  Matrix range     [1e-08, 1e+11]
  Objective range  [3e-02, 5e+01]
  Bounds range     [1e+00, 2e+00]
  RHS range        [8e-02, 6e+11]
Warning: Model contains large matrix coefficient range
Warning: Model contains large rhs
         Consider reformulating model or setting NumericFocus parameter
         to avoid numerical issues.
Presolve removed 235567 rows and 69965 columns
Presolve time: 0.17s
Presolved: 187020 rows, 350488 columns, 1240030 nonzeros

Iteration    Objective       Primal Inf.    Dual Inf.      Time
       0   -1.2794036e+34   8.296355e+34   1.279404e+04      0s
  154824    5.5433152e+09   1.344498e+08   0.000000e+00      5s
  163480    5.6979422e+09   7.704240e+07   0.000000e+00     12s
  166341    5.7828510e+09   1.707856e+09   0.000000e+00     16s
  168979    5.8218236e+09   4.430405e+07   0.000000e+00     20s
  175286    5.9959829e+09   1.516136e+09   0.000000e+00     28s
  176813    6.0144870e+09   1.430125e+08   0.000000e+00     31s
  178802    6.0284788e+09   1.039290e+08   0.000000e+00     35s
  183263    6.1291183e+09   1.785643e+07   0.000000e+00     44s
  184003    6.1318461e+09   0.000000e+00   0.000000e+00     46s
  184003    6.1318461e+09   0.000000e+00   0.000000e+00     46s

Solved in 184003 iterations and 45.70 seconds
Optimal objective  6.131846110e+09
Warning: unscaled primal violation = 0.00366211 and residual = 0.00366211
status: OPTIMAL
